(set-info :smt-lib-version 2.6)
(set-info :category "crafted")
(set-logic QF_FF)
(define-sort FF0 () (_ FiniteField 52435875175126190479447740508185965837690552500527637822603658699938581184513))
(declare-fun return_n9_alt () FF0)
(declare-fun is_zero_n24_alt () FF0)
(declare-fun mul_n29_alt () FF0)
(declare-fun mul_n25_alt () FF0)
(declare-fun mul_n28_alt () FF0)
(declare-fun is_zero_n27_alt () FF0)
(declare-fun j_n5_alt () FF0)
(declare-fun d_n6_alt () FF0)
(declare-fun l_n1_alt () FF0)
(declare-fun a_n12_alt () FF0)
(declare-fun g_n0_alt () FF0)
(declare-fun is_zero_inv_n26_alt () FF0)
(declare-fun e_n4_alt () FF0)
(declare-fun b_n10_alt () FF0)
(declare-fun is_zero_n19_alt () FF0)
(declare-fun mul_n22_alt () FF0)
(declare-fun mul_n15_alt () FF0)
(declare-fun f_n2_alt () FF0)
(declare-fun mul_n20_alt () FF0)
(declare-fun mul_n13_alt () FF0)
(declare-fun is_zero_inv_n23_alt () FF0)
(declare-fun mul_n16_alt () FF0)
(declare-fun mul_n21_alt () FF0)
(declare-fun k_n3_alt () FF0)
(declare-fun i_n7_alt () FF0)
(declare-fun h_n11_alt () FF0)
(declare-fun mul_n17_alt () FF0)
(declare-fun is_zero_inv_n18_alt () FF0)
(declare-fun mul_n14_alt () FF0)
(declare-fun c_n8_alt () FF0)
(declare-fun return_n9 () FF0)
(declare-fun is_zero_n24 () FF0)
(declare-fun mul_n29 () FF0)
(declare-fun mul_n25 () FF0)
(declare-fun mul_n28 () FF0)
(declare-fun is_zero_n27 () FF0)
(declare-fun j_n5 () FF0)
(declare-fun d_n6 () FF0)
(declare-fun l_n1 () FF0)
(declare-fun a_n12 () FF0)
(declare-fun g_n0 () FF0)
(declare-fun is_zero_inv_n26 () FF0)
(declare-fun e_n4 () FF0)
(declare-fun b_n10 () FF0)
(declare-fun is_zero_n19 () FF0)
(declare-fun mul_n22 () FF0)
(declare-fun mul_n15 () FF0)
(declare-fun f_n2 () FF0)
(declare-fun mul_n20 () FF0)
(declare-fun mul_n13 () FF0)
(declare-fun is_zero_inv_n23 () FF0)
(declare-fun mul_n16 () FF0)
(declare-fun mul_n21 () FF0)
(declare-fun k_n3 () FF0)
(declare-fun i_n7 () FF0)
(declare-fun h_n11 () FF0)
(declare-fun mul_n17 () FF0)
(declare-fun is_zero_inv_n18 () FF0)
(declare-fun mul_n14 () FF0)
(declare-fun c_n8 () FF0)
(assert 
  (let ((let0 return_n9_alt))
  (let ((let1 is_zero_n24_alt))
  (let ((let2 mul_n29_alt))
  (let ((let3 (ff.mul let2 let1)))
  (let ((let4 (= let3 let0)))
  (let ((let5 (as ff1 FF0)))
  (let ((let6 (as ff52435875175126190479447740508185965837690552500527637822603658699938581184512 FF0)))
  (let ((let7 mul_n25_alt))
  (let ((let8 (ff.mul let7 let6)))
  (let ((let9 (ff.add let8 let5)))
  (let ((let10 mul_n28_alt))
  (let ((let11 (ff.mul let10 let6)))
  (let ((let12 (ff.add let11 let5)))
  (let ((let13 (ff.mul let12 let9)))
  (let ((let14 (= let13 let2)))
  (let ((let15 is_zero_n27_alt))
  (let ((let16 (ff.mul let15 let6)))
  (let ((let17 (ff.add let16 let5)))
  (let ((let18 j_n5_alt))
  (let ((let19 (ff.mul let18 let17)))
  (let ((let20 (= let19 let10)))
  (let ((let21 (as ff0 FF0)))
  (let ((let22 (as ff5 FF0)))
  (let ((let23 d_n6_alt))
  (let ((let24 (ff.mul let23 let6)))
  (let ((let25 l_n1_alt))
  (let ((let26 (ff.mul let25 let6)))
  (let ((let27 (as ff52435875175126190479447740508185965837690552500527637822603658699938581184511 FF0)))
  (let ((let28 a_n12_alt))
  (let ((let29 (ff.mul let28 let27)))
  (let ((let30 g_n0_alt))
  (let ((let31 (ff.mul let30 let6)))
  (let ((let32 (ff.add let31 let29 let26 let24 let22)))
  (let ((let33 (ff.mul let15 let32)))
  (let ((let34 (= let33 let21)))
  (let ((let35 is_zero_inv_n26_alt))
  (let ((let36 (ff.mul let35 let32)))
  (let ((let37 (= let36 let17)))
  (let ((let38 e_n4_alt))
  (let ((let39 (ff.mul let38 let6)))
  (let ((let40 (ff.add let39 let5)))
  (let ((let41 b_n10_alt))
  (let ((let42 (ff.mul let41 let6)))
  (let ((let43 (ff.add let42 let5)))
  (let ((let44 (ff.mul let43 let40)))
  (let ((let45 (= let44 let7)))
  (let ((let46 (as ff6 FF0)))
  (let ((let47 is_zero_n19_alt))
  (let ((let48 (ff.mul let47 let6)))
  (let ((let49 mul_n22_alt))
  (let ((let50 (ff.mul let49 let6)))
  (let ((let51 mul_n15_alt))
  (let ((let52 (ff.mul let51 let6)))
  (let ((let53 f_n2_alt))
  (let ((let54 (ff.mul let53 let27)))
  (let ((let55 mul_n20_alt))
  (let ((let56 (ff.mul let55 let27)))
  (let ((let57 mul_n13_alt))
  (let ((let58 (ff.mul let57 let27)))
  (let ((let59 (ff.add let58 let56 let39 let54 let52 let50 let48 let46)))
  (let ((let60 (ff.mul let1 let59)))
  (let ((let61 (= let60 let21)))
  (let ((let62 (ff.mul let1 let6)))
  (let ((let63 (ff.add let62 let5)))
  (let ((let64 is_zero_inv_n23_alt))
  (let ((let65 (ff.mul let64 let59)))
  (let ((let66 (= let65 let63)))
  (let ((let67 mul_n16_alt))
  (let ((let68 (ff.mul let67 let6)))
  (let ((let69 (ff.add let68 let5)))
  (let ((let70 mul_n21_alt))
  (let ((let71 (ff.mul let70 let69)))
  (let ((let72 (= let71 let49)))
  (let ((let73 k_n3_alt))
  (let ((let74 (ff.mul let73 let41)))
  (let ((let75 (= let74 let70)))
  (let ((let76 i_n7_alt))
  (let ((let77 (ff.mul let53 let6)))
  (let ((let78 (ff.mul let57 let6)))
  (let ((let79 (ff.add let78 let77 let76)))
  (let ((let80 (ff.mul let47 let79)))
  (let ((let81 (= let80 let55)))
  (let ((let82 (as ff2 FF0)))
  (let ((let83 h_n11_alt))
  (let ((let84 mul_n17_alt))
  (let ((let85 (ff.mul let76 let6)))
  (let ((let86 (ff.add let53 let85 let84 let26 let83 let82)))
  (let ((let87 (ff.mul let47 let86)))
  (let ((let88 (= let87 let21)))
  (let ((let89 (ff.add let48 let5)))
  (let ((let90 is_zero_inv_n18_alt))
  (let ((let91 (ff.mul let90 let86)))
  (let ((let92 (= let91 let89)))
  (let ((let93 (ff.mul let18 let6)))
  (let ((let94 (ff.add let93 let5)))
  (let ((let95 (ff.mul let94 let67)))
  (let ((let96 (= let95 let84)))
  (let ((let97 (ff.add let31 let5)))
  (let ((let98 (ff.mul let73 let97)))
  (let ((let99 (= let98 let67)))
  (let ((let100 (ff.add let78 let77 let5)))
  (let ((let101 mul_n14_alt))
  (let ((let102 (ff.mul let101 let100)))
  (let ((let103 (= let102 let51)))
  (let ((let104 (ff.mul let83 let6)))
  (let ((let105 (ff.add let104 let5)))
  (let ((let106 (ff.add let24 let5)))
  (let ((let107 (ff.mul let106 let105)))
  (let ((let108 (= let107 let101)))
  (let ((let109 c_n8_alt))
  (let ((let110 (ff.add let109 let77)))
  (let ((let111 (ff.mul let38 let110)))
  (let ((let112 (= let111 let57)))
  (let ((let113 (and let112 let108 let103 let99 let96 let92 let88 let81 let75 let72 let66 let61 let45 let37 let34 let20 let14 let4)))
  (let ((let114 return_n9))
  (let ((let115 is_zero_n24))
  (let ((let116 mul_n29))
  (let ((let117 (ff.mul let116 let115)))
  (let ((let118 (= let117 let114)))
  (let ((let119 mul_n25))
  (let ((let120 (ff.mul let119 let6)))
  (let ((let121 (ff.add let120 let5)))
  (let ((let122 mul_n28))
  (let ((let123 (ff.mul let122 let6)))
  (let ((let124 (ff.add let123 let5)))
  (let ((let125 (ff.mul let124 let121)))
  (let ((let126 (= let125 let116)))
  (let ((let127 is_zero_n27))
  (let ((let128 (ff.mul let127 let6)))
  (let ((let129 (ff.add let128 let5)))
  (let ((let130 j_n5))
  (let ((let131 (ff.mul let130 let129)))
  (let ((let132 (= let131 let122)))
  (let ((let133 d_n6))
  (let ((let134 (ff.mul let133 let6)))
  (let ((let135 l_n1))
  (let ((let136 (ff.mul let135 let6)))
  (let ((let137 a_n12))
  (let ((let138 (ff.mul let137 let27)))
  (let ((let139 g_n0))
  (let ((let140 (ff.mul let139 let6)))
  (let ((let141 (ff.add let140 let138 let136 let134 let22)))
  (let ((let142 (ff.mul let127 let141)))
  (let ((let143 (= let142 let21)))
  (let ((let144 is_zero_inv_n26))
  (let ((let145 (ff.mul let144 let141)))
  (let ((let146 (= let145 let129)))
  (let ((let147 e_n4))
  (let ((let148 (ff.mul let147 let6)))
  (let ((let149 (ff.add let148 let5)))
  (let ((let150 b_n10))
  (let ((let151 (ff.mul let150 let6)))
  (let ((let152 (ff.add let151 let5)))
  (let ((let153 (ff.mul let152 let149)))
  (let ((let154 (= let153 let119)))
  (let ((let155 is_zero_n19))
  (let ((let156 (ff.mul let155 let6)))
  (let ((let157 mul_n22))
  (let ((let158 (ff.mul let157 let6)))
  (let ((let159 mul_n15))
  (let ((let160 (ff.mul let159 let6)))
  (let ((let161 f_n2))
  (let ((let162 (ff.mul let161 let27)))
  (let ((let163 mul_n20))
  (let ((let164 (ff.mul let163 let27)))
  (let ((let165 mul_n13))
  (let ((let166 (ff.mul let165 let27)))
  (let ((let167 (ff.add let166 let164 let148 let162 let160 let158 let156 let46)))
  (let ((let168 (ff.mul let115 let167)))
  (let ((let169 (= let168 let21)))
  (let ((let170 (ff.mul let115 let6)))
  (let ((let171 (ff.add let170 let5)))
  (let ((let172 is_zero_inv_n23))
  (let ((let173 (ff.mul let172 let167)))
  (let ((let174 (= let173 let171)))
  (let ((let175 mul_n16))
  (let ((let176 (ff.mul let175 let6)))
  (let ((let177 (ff.add let176 let5)))
  (let ((let178 mul_n21))
  (let ((let179 (ff.mul let178 let177)))
  (let ((let180 (= let179 let157)))
  (let ((let181 k_n3))
  (let ((let182 (ff.mul let181 let150)))
  (let ((let183 (= let182 let178)))
  (let ((let184 i_n7))
  (let ((let185 (ff.mul let161 let6)))
  (let ((let186 (ff.mul let165 let6)))
  (let ((let187 (ff.add let186 let185 let184)))
  (let ((let188 (ff.mul let155 let187)))
  (let ((let189 (= let188 let163)))
  (let ((let190 h_n11))
  (let ((let191 mul_n17))
  (let ((let192 (ff.mul let184 let6)))
  (let ((let193 (ff.add let161 let192 let191 let136 let190 let82)))
  (let ((let194 (ff.mul let155 let193)))
  (let ((let195 (= let194 let21)))
  (let ((let196 (ff.add let156 let5)))
  (let ((let197 is_zero_inv_n18))
  (let ((let198 (ff.mul let197 let193)))
  (let ((let199 (= let198 let196)))
  (let ((let200 (ff.mul let130 let6)))
  (let ((let201 (ff.add let200 let5)))
  (let ((let202 (ff.mul let201 let175)))
  (let ((let203 (= let202 let191)))
  (let ((let204 (ff.add let140 let5)))
  (let ((let205 (ff.mul let181 let204)))
  (let ((let206 (= let205 let175)))
  (let ((let207 (ff.add let186 let185 let5)))
  (let ((let208 mul_n14))
  (let ((let209 (ff.mul let208 let207)))
  (let ((let210 (= let209 let159)))
  (let ((let211 (ff.mul let190 let6)))
  (let ((let212 (ff.add let211 let5)))
  (let ((let213 (ff.add let134 let5)))
  (let ((let214 (ff.mul let213 let212)))
  (let ((let215 (= let214 let208)))
  (let ((let216 c_n8))
  (let ((let217 (ff.add let216 let185)))
  (let ((let218 (ff.mul let147 let217)))
  (let ((let219 (= let218 let165)))
  (let ((let220 (and let219 let215 let210 let206 let203 let199 let195 let189 let183 let180 let174 let169 let154 let146 let143 let132 let126 let118)))
  (let ((let221 (= let114 let0)))
  (let ((let222 (not let221)))
  (let ((let223 (= let139 let30)))
  (let ((let224 (= let216 let109)))
  (let ((let225 (= let181 let73)))
  (let ((let226 (= let135 let25)))
  (let ((let227 (= let137 let28)))
  (let ((let228 (= let184 let76)))
  (let ((let229 (= let130 let18)))
  (let ((let230 (= let133 let23)))
  (let ((let231 (= let150 let41)))
  (let ((let232 (= let147 let38)))
  (let ((let233 (= let190 let83)))
  (let ((let234 (= let161 let53)))
  (let ((let235 (and let234 let233 let232 let231 let230 let229 let228 let227 let226 let225 let224 let223)))
  (let ((let236 (and let235 let222 let220 let113)))
  let236
)))))))))))))))))))))))))))))))))))))))))))))))))))))))))))))))))))))))))))))))))))))))))))))))))))))))))))))))))))))))))))))))))))))))))))))))))))))))))))))))))))))))))))))))))))))))))))))))))))))))))))))))))))))))))))))))))))))))))))))
)
(check-sat)
